COMUNI = {
	citta_di_castello,
	assisi,
	spoleto,
};

NUMERO_COMUNI = 3;

ABITANTI_PER_COMUNE = [38, 27, 36];

STRADE_TRA_COMUNI = [|
	false, false, false |
	false, false, false |
	false, false, false |
|];

RICHIESTE = [|
	11, 154, 113, 18, 0 |
	25, 96, 64, 35, 90 |
	89, 47, 98, 4, 148 |
|];
